letting n be 12
letting exclusions be [
]
letting assignments be [
[4, 5, 1, 7]
,
[6, 6, 1, 8]
,
[3, 2, 1, 7]
,
[8, 5, 2, 11]
,
[11, 6, 1, 6]
,
[6, 2, 1, 11]
,
[1, 2, 1, 3]
,
[1, 4, 1, 1]
,
[2, 3, 1, 4]
,
[10, 3, 1, 1]
]
